50
100
100
100
100
97
96
92
91
91
89
86
85
84
83
83
82
81
79
79
77
74
74
73
73
70
68
67
67
65
63
62
62
55
55
52
50
47
45
44
44
44
44
43
41
39
37
32
30
26
24
23
